multiobj/instances/reallike/Ter-rl-6-2-0.80-1.0-1.in
6 2
0 123 17 72 89 90 
123 0 116 51 121 48 
17 116 0 64 101 90 
72 51 64 0 97 39 
89 121 101 97 0 73 
90 48 90 39 73 0 
0 0 24573 0 0 106 
0 0 0 20505 0 0 
24573 0 0 1 68 52 
0 20505 1 0 2 7307 
0 0 68 2 0 0 
106 0 52 7307 0 0 
0 0 1325 0 2 0 
0 0 0 1410 0 0 
1325 0 0 0 344 227 
0 1410 0 0 5 17593 
2 0 344 5 0 0 
0 0 227 17593 0 0 
