multiobj/solutions/reallike/Ter-rl-6-2-0.80-1.0-1.out
3 2
2 3 0 5 4 1 
3186304 1962166 
2 1 0 5 4 3 
3407540 1647718 
1 3 5 2 4 0 
5278034 998420 
